
Value of objective function: 25.00000000

Actual values of the variables:
t1                              1
t2                              1
t3                              1
t4                              0
t5                              1
t6                              0
t7                              1
t8                              0
t9                              1
t10                             0
t11                             1
t12                             1
t13                             1
t14                             0
t15                             0
t16                             0
t17                             0
t18                             0
t19                             0
t20                             0
t21                             0
t22                             1
t23                             0
t24                             1
t25                             0
t26                             1
t27                             1
t28                             1
t29                             0
t30                             1
t31                             0
t32                             0
t33                             1
t34                             1
t35                             0
t36                             0
t37                             0
t38                             0
t39                             0
t40                             1
t41                             1
t42                             0
t43                             1
t44                             0
t45                             1
t46                             1
t47                             1
t48                             1
t49                             0
t50                             1
t51                             0
t52                             0
t53                             0
t54                             0
t55                             0
t56                             0
